 621 100 2 3 4 14 15 19 21 23 28 29 32 34 36 38 41 42 44 46 47 49 51 53 55 57 58 60 65 69 70 74 75 76 78 80 82 85 88 91 94 97 98 
 8
 8 21 24 36 73 83 91 96
 10
 8 9 20 36 50 67 83 93 96 99
 14
 7 8 9 20 24 25 33 46 50 56 67 72 83 97
 15
 3 7 8 9 16 20 24 25 30 38 50 53 55 83 84
 13
 3 7 9 16 20 24 25 38 50 53 55 83 96
 15
 3 7 9 16 20 24 25 33 38 50 53 67 70 83 96
 15
 7 8 9 20 24 25 30 33 46 50 56 67 72 83 97
 12
 7 8 9 21 24 42 50 56 65 67 83 84
 11
 7 8 20 21 23 24 36 65 83 84 96
 10
 7 8 20 21 23 24 36 65 83 84
 14
 7 8 9 20 24 25 28 33 46 50 56 67 83 99
 15
 3 7 8 9 16 20 24 25 33 38 50 53 67 70 83
 13
 3 7 8 9 16 20 24 25 38 50 53 55 83
 12
 4 7 8 9 18 19 20 24 25 47 55 83
 14
 8 9 20 24 25 33 36 50 65 67 72 83 94 96
 14
 7 8 9 24 25 28 33 50 56 67 72 83 97 99
 14
 2 7 8 9 24 25 26 33 50 56 67 75 83 97
 10
 7 16 18 21 24 56 73 83 91 96
 14
 7 8 9 15 20 24 33 50 56 67 83 88 96 99
 14
 7 8 9 15 16 20 24 33 50 56 67 83 88 99
 14
 7 8 9 15 20 24 25 33 50 56 67 83 88 99
 14
 7 8 9 15 16 20 24 25 33 56 67 71 83 88
 12
 7 8 9 13 18 20 24 39 58 71 83 84
 17
 7 8 9 18 20 24 25 26 29 33 50 56 65 67 78 83 84
 16
 7 8 9 24 25 26 29 33 36 50 65 67 78 83 84 96
 13
 8 9 24 25 26 33 36 50 65 67 83 94 96
 10
 7 8 9 18 24 25 28 36 56 98
 12
 7 8 9 24 25 28 33 50 56 91 96 98
 11
 7 8 9 24 25 28 33 56 91 96 98
 7
 5 8 9 25 28 96 98
 15
 7 8 9 20 24 25 33 50 56 58 67 72 83 94 99
 10
 7 8 9 24 25 46 50 55 80 83
 11
 7 8 9 24 25 46 50 55 80 83 96
 15
 7 8 9 24 25 26 29 33 36 50 65 67 78 83 84
 16
 7 8 9 24 25 26 30 33 42 44 50 56 67 75 82 83
 14
 7 8 9 18 20 21 23 24 50 56 58 67 83 84
 14
 7 8 9 20 24 25 33 46 50 67 80 83 96 99
 14
 7 8 9 20 24 25 28 33 46 50 56 67 71 83
 11
 7 8 9 24 25 28 50 56 91 96 98
 7
 1 8 9 25 28 36 98
 12
 7 8 9 20 24 25 33 44 50 56 80 98
 17
 7 8 9 16 24 25 26 30 33 42 44 50 56 67 75 82 83
 16
 7 8 9 16 24 25 26 33 34 50 56 67 83 84 94 96
 16
 7 8 9 24 25 26 33 34 36 50 56 67 72 83 84 94
 12
 7 8 20 22 23 24 30 34 50 56 83 91
 14
 7 8 9 24 29 30 34 36 50 56 65 67 83 84
 14
 2 7 8 9 24 25 30 33 50 56 59 67 83 97
 13
 7 8 9 20 24 25 33 46 50 67 72 83 97
 14
 7 8 9 13 16 20 24 39 50 58 67 84 96 99
 14
 7 8 9 13 16 20 24 30 44 58 67 71 83 96
 16
 7 8 9 16 20 24 25 33 56 58 60 67 71 77 83 85
 15
 7 8 9 24 25 26 30 33 36 50 60 67 83 94 96
 16
 7 8 9 16 19 20 24 33 47 50 56 60 67 83 96 99
 16
 4 7 8 9 16 19 20 24 25 33 47 50 67 83 96 99
 14
 4 7 8 9 16 19 20 24 25 47 50 55 83 96
 14
 4 7 8 9 16 24 25 33 50 51 67 70 79 83
 15
 7 8 9 18 21 24 25 30 33 50 51 56 65 67 83
 16
 7 8 9 20 24 25 33 34 36 50 56 67 72 83 84 94
 14
 7 8 9 20 24 25 33 50 56 67 72 74 83 98
 15
 7 8 9 16 20 24 25 33 50 56 67 72 74 83 98
 13
 7 8 9 13 16 20 24 25 44 58 67 71 83
 14
 7 8 9 15 20 24 25 33 50 56 67 71 83 88
 15
 7 8 9 20 24 25 33 49 50 56 67 69 70 76 83
 15
 7 8 9 20 24 25 33 50 55 56 67 69 72 76 83
 17
 7 8 9 20 24 25 33 44 50 55 56 67 69 72 76 83 84
 15
 7 8 9 15 16 20 24 25 33 50 56 67 71 83 88
 15
 7 8 9 15 20 24 25 33 50 56 67 71 83 88 96
 16
 7 8 9 18 20 21 24 25 30 33 50 51 56 65 67 83
 13
 7 8 18 20 21 23 24 50 56 65 83 84 96
 13
 7 8 9 20 21 23 24 48 50 56 67 83 91
 15
 1 7 8 9 14 24 25 33 44 50 67 70 75 82 83
 14
 7 8 9 14 16 24 25 27 33 42 50 67 71 83
 15
 7 8 9 24 25 26 30 33 42 50 53 67 68 83 96
 16
 0 7 8 9 20 24 25 33 50 56 60 67 78 83 91 99
 16
 7 8 9 20 24 25 33 49 50 56 67 69 71 76 83 99
 15
 7 8 9 20 24 25 33 49 50 54 56 67 69 76 83
 16
 7 8 9 24 25 26 33 42 44 50 56 67 75 82 83 84
 14
 7 8 9 16 20 23 24 27 30 42 50 56 67 83
 16
 7 8 9 14 18 24 25 33 44 50 54 56 67 75 82 83
 12
 7 8 9 16 20 24 33 44 50 56 80 98
 13
 7 8 9 20 24 25 33 44 50 52 56 67 98
 14
 7 8 9 24 25 26 33 50 56 67 74 75 83 94
 15
 7 8 9 24 25 26 33 35 50 56 58 67 83 84 86
 13
 7 8 9 20 22 23 24 30 34 50 56 83 91
 14
 7 8 9 20 21 23 24 30 34 50 56 67 83 91
 9
 1 7 16 21 24 50 73 83 91
 15
 7 8 9 24 25 32 33 43 50 54 56 67 81 83 85
 15
 7 8 9 16 20 24 25 27 33 50 51 67 83 90 96
 13
 7 8 9 10 16 20 24 27 67 83 84 92 96
 17
 7 8 9 16 24 25 26 33 41 50 51 56 64 67 83 84 96
 15
 7 8 9 16 21 24 25 30 33 50 51 56 65 67 83
 15
 1 7 9 16 24 25 26 33 50 65 67 75 82 83 84
 10
 1 8 9 20 24 67 71 83 93 96
 15
 7 8 9 20 24 25 33 50 56 67 72 74 83 87 99
 15
 7 8 9 24 25 30 33 50 56 57 67 74 83 97 99
 15
 2 7 8 9 20 24 25 26 33 50 56 57 67 83 97
 13
 7 8 9 24 25 29 33 38 56 67 71 85 97
 14
 3 7 9 16 20 24 25 33 38 50 53 54 67 96
 15
 3 7 9 16 20 24 25 26 33 38 50 53 67 83 96
 15
 1 8 9 20 25 30 33 50 57 62 64 67 83 84 96
 11
 1 8 9 20 24 50 67 83 93 96 99
 15
 7 8 9 14 24 25 27 33 42 50 56 67 71 83 96
 12
 7 9 10 16 20 24 27 67 83 84 92 96
 12
 7 8 9 10 20 24 27 67 83 84 92 96
 16
 7 8 9 20 24 25 30 32 33 50 54 56 67 69 76 83
 14
 7 8 9 20 21 23 24 48 50 56 67 83 91 96
 17
 7 8 9 18 20 24 25 33 50 56 58 60 67 71 77 83 85
 17
 7 8 9 16 20 24 25 33 50 56 58 60 67 77 83 85 99
 8
 7 8 21 24 36 73 83 91
 14
 7 8 9 24 25 26 29 36 49 50 65 67 82 83
 12
 7 8 9 24 25 29 33 36 73 83 85 91
 10
 1 7 8 21 24 50 73 83 91 96
 8
 7 8 16 20 24 84 95 96
 7
 7 8 18 24 83 84 95
 15
 4 7 8 9 18 24 25 32 33 50 51 67 70 83 85
 17
 4 7 8 9 16 24 25 32 33 50 51 56 67 70 83 85 96
 16
 4 7 8 9 16 24 25 32 33 50 51 56 67 70 83 85
 13
 7 8 9 24 25 33 50 56 80 83 85 96 98
 13
 7 8 9 20 24 25 33 44 50 56 80 96 98
 17
 4 7 8 9 16 24 25 33 41 44 50 51 56 67 70 83 96
 16
 0 7 8 9 16 24 25 26 33 41 50 56 67 74 83 94
 15
 7 8 9 24 25 26 33 44 50 56 57 67 74 83 94
 16
 7 8 9 16 24 25 26 33 44 50 56 67 74 82 83 94
 15
 7 8 9 20 24 25 33 50 55 56 67 72 74 80 83
 15
 7 8 9 20 24 25 26 33 50 56 67 72 80 83 94
 16
 7 8 9 20 24 25 26 33 44 50 56 67 72 80 83 94
 18
 7 8 9 20 24 25 26 33 40 49 50 56 58 67 82 83 84 96
 15
 1 7 8 9 24 25 26 29 33 49 50 65 67 82 83
 10
 1 7 8 9 20 24 67 71 83 93
 16
 7 8 9 20 24 25 33 50 56 66 67 69 70 72 76 83
 16
 0 7 8 9 20 24 25 33 44 50 55 56 67 69 76 83
 15
 7 8 9 20 24 25 33 50 56 67 69 70 72 76 83
 15
 7 9 16 17 20 24 25 33 44 50 51 67 70 83 96
 15
 7 9 16 17 20 24 25 33 44 50 51 54 67 83 96
 16
 7 8 9 18 24 25 26 33 34 39 41 50 51 56 67 83
 14
 0 5 7 8 9 24 25 26 33 34 50 67 78 83
 16
 0 7 8 9 16 24 25 26 33 34 50 56 67 78 83 91
 16
 7 8 9 20 24 25 33 50 56 60 67 77 78 83 91 99
 18
 7 8 9 16 18 20 24 25 33 50 56 60 67 71 77 78 83 96
 16
 7 8 9 16 20 24 25 33 50 56 60 67 71 77 78 83
 16
 1 7 8 9 14 24 25 33 44 50 54 67 75 82 83 96
 16
 7 8 9 24 25 30 33 41 43 50 54 56 67 81 83 85
 17
 1 7 8 9 14 20 24 25 33 41 50 60 67 71 83 85 96
 14
 3 7 8 9 14 20 24 25 33 41 50 56 67 78
 16
 1 7 8 9 16 20 24 25 33 50 60 67 77 78 83 99
 15
 3 7 8 9 20 24 25 33 38 50 53 67 83 96 99
 14
 3 7 8 9 20 24 25 33 38 53 67 71 83 96
 13
 3 7 8 9 24 25 33 38 50 53 54 67 83
 16
 0 5 7 8 9 24 25 33 41 50 54 56 67 78 83 85
 14
 1 7 8 9 14 24 25 32 49 50 54 67 82 83
 17
 7 8 9 14 16 24 25 32 33 49 50 54 56 67 82 83 96
 15
 1 7 8 9 14 20 24 25 32 50 54 56 67 78 83
 14
 7 8 9 14 20 24 25 33 35 50 54 56 67 83
 16
 7 8 9 24 25 32 33 43 50 54 56 67 69 83 84 85
 16
 0 5 7 8 9 24 25 33 41 50 54 56 67 69 83 85
 14
 7 8 9 24 25 26 28 33 50 56 67 72 83 94
 15
 4 7 8 9 18 19 24 25 33 50 54 56 57 67 83
 16
 4 7 8 9 16 19 20 24 25 26 33 47 50 67 83 96
 15
 7 8 9 16 20 24 25 49 50 55 57 82 83 88 96
 15
 7 8 9 20 24 25 49 50 55 56 57 82 83 88 96
 16
 7 8 9 20 24 25 41 50 55 56 57 67 82 83 85 88
 16
 0 7 8 9 20 24 25 33 44 50 55 56 57 82 83 88
 13
 7 8 9 16 24 25 44 49 55 56 68 83 88
 19
 7 8 9 16 20 24 25 41 44 49 50 55 56 57 67 82 83 85 96
 17
 1 2 7 8 9 20 24 25 26 33 49 50 55 56 57 67 83
 17
 2 7 8 9 16 20 24 25 33 50 56 67 71 72 80 83 86
 15
 2 7 8 9 24 25 26 33 50 56 67 80 83 86 99
 16
 2 7 8 9 24 25 26 33 41 50 52 56 67 72 83 99
 16
 7 8 9 18 24 25 33 41 50 54 56 57 67 75 82 83
 16
 7 8 9 15 16 20 24 25 33 50 56 67 83 88 96 99
 14
 7 9 15 20 24 25 33 50 66 67 83 85 91 99
 11
 7 8 18 21 24 50 56 73 83 91 96
 7
 5 7 8 9 25 28 98
 12
 6 7 8 17 24 30 33 50 53 70 83 96
 16
 7 8 9 16 17 24 25 32 33 44 49 50 56 67 70 83
 16
 2 7 8 9 16 24 25 32 33 50 56 67 72 74 83 99
 15
 3 7 9 16 20 24 25 33 38 50 53 67 83 96 99
 14
 3 7 8 9 20 24 25 33 38 50 53 67 70 83
 15
 3 7 8 9 20 24 25 33 38 50 53 67 70 83 96
 17
 3 7 8 9 16 20 24 25 30 33 38 50 53 67 70 83 84
 15
 7 8 9 20 24 25 33 46 50 56 67 71 72 74 83
 16
 7 8 9 20 24 25 33 46 50 56 67 72 74 83 96 99
 17
 2 7 8 9 16 21 24 25 29 30 33 50 56 67 74 83 99
 14
 7 8 9 21 24 25 29 30 33 50 56 74 83 94
 16
 7 8 9 16 20 24 25 33 34 50 56 67 72 83 84 94
 15
 7 8 9 24 25 26 33 34 50 56 67 72 83 84 94
 15
 7 8 9 20 24 29 30 34 36 50 56 65 67 83 84
 14
 7 8 9 16 20 24 25 33 50 56 80 84 85 98
 14
 7 8 9 20 24 25 30 33 46 50 67 80 83 99
 17
 7 8 9 16 20 24 25 33 34 36 50 60 67 77 83 84 85
 16
 7 8 9 20 24 25 33 34 50 60 67 77 83 84 85 91
 16
 7 8 9 18 19 20 24 25 33 47 50 56 60 67 83 99
 15
 4 7 8 9 18 19 20 24 25 33 47 50 67 83 99
 15
 2 7 8 9 19 24 25 26 33 50 56 67 74 83 99
 15
 7 8 9 16 17 19 20 24 25 33 50 53 67 83 99
 15
 7 9 16 17 20 24 25 33 44 50 51 67 83 96 99
 13
 7 8 9 18 24 25 33 49 56 67 73 83 91
 8
 7 8 16 24 83 84 95 96
 7
 7 8 18 20 24 84 95
 15
 7 8 9 15 20 24 25 33 36 44 49 50 67 83 99
 15
 7 8 9 15 20 24 25 33 36 49 50 67 83 85 99
 15
 1 7 8 9 15 16 20 24 25 33 49 67 71 83 85
 15
 7 8 9 15 16 20 24 25 33 53 56 67 71 77 83
 11
 7 8 9 16 18 20 24 67 71 83 93
 16
 7 8 9 18 21 23 24 25 26 33 50 51 56 67 83 85
 17
 7 8 9 18 24 25 29 30 33 50 56 60 65 67 83 84 96
 14
 8 9 25 26 29 33 36 49 50 65 67 82 83 96
 14
 7 9 15 16 20 24 25 29 33 36 67 77 83 99
 15
 0 7 8 9 15 20 24 25 29 33 56 67 83 91 99
 15
 1 7 9 16 24 25 26 29 33 49 50 65 67 82 83
 16
 7 8 9 16 24 25 26 33 50 65 67 75 82 83 84 96
 17
 7 8 9 16 20 24 25 33 50 56 58 67 75 82 83 96 99
 16
 7 8 9 20 24 25 33 50 56 58 67 71 75 82 83 96
 15
 7 8 9 16 20 24 25 33 44 58 67 68 71 83 96
 13
 7 8 9 16 20 24 25 58 67 68 71 83 85
 12
 7 8 9 16 20 24 56 67 71 83 93 96
 13
 7 8 9 13 18 20 24 44 56 58 67 71 83
 16
 7 8 9 13 18 24 25 30 33 34 44 50 56 67 83 84
 14
 5 7 8 9 18 24 25 30 33 41 67 73 83 84
 16
 2 7 8 9 16 24 25 33 50 56 67 72 80 83 86 99
 16
 2 7 8 9 24 25 33 40 42 50 56 67 72 83 84 86
 15
 7 8 9 24 25 33 42 44 50 56 67 71 75 82 83
 16
 7 8 9 16 24 25 33 44 50 51 54 56 67 75 82 83
 16
 7 8 9 20 24 25 26 33 50 56 67 72 80 83 86 99
 13
 1 9 20 25 30 33 39 44 50 61 67 83 99
 11
 1 7 8 9 20 24 50 67 83 93 99
 13
 1 7 9 20 25 33 39 44 50 61 67 83 99
 15
 7 8 9 20 24 25 33 50 52 56 67 72 83 97 99
 15
 7 8 9 20 24 25 33 41 50 52 56 67 71 83 97
 15
 7 8 9 20 24 25 26 33 50 52 56 67 72 83 94
 15
 7 8 9 16 20 24 25 33 37 50 57 59 67 83 96
 15
 7 8 9 18 20 24 25 33 37 50 56 57 59 67 83
 14
 7 8 9 18 20 24 25 33 37 50 57 59 67 83
 14
 7 8 9 16 20 24 25 33 37 50 57 59 67 83
 15
 7 8 9 18 20 24 25 30 40 61 67 71 83 84 96
 14
 7 8 9 12 18 20 24 25 30 33 61 67 71 83
 12
 7 8 9 18 24 25 44 55 61 83 85 96
 11
 7 8 16 21 24 50 56 73 83 91 96
 17
 0 5 7 8 9 24 25 33 41 48 50 56 67 72 83 85 99
 14
 7 8 9 16 20 21 23 24 36 48 50 67 83 96
 16
 7 8 9 16 24 25 26 30 33 48 50 56 67 68 83 85
 15
 7 8 9 20 24 25 41 44 50 55 56 67 68 75 83
 15
 7 8 9 20 24 25 41 50 55 56 67 68 75 83 85
 17
 5 7 8 9 20 24 25 26 30 33 36 50 67 72 81 83 96
 18
 7 8 9 16 21 23 24 25 26 33 50 53 56 67 75 83 85 96
 16
 7 8 9 16 20 21 23 24 33 34 50 56 67 83 84 96
 16
 7 8 9 20 21 23 24 25 30 33 34 50 56 67 83 91
 15
 7 8 9 20 21 23 24 33 34 50 56 67 83 84 91
 14
 7 8 9 20 21 23 24 34 50 56 67 83 84 91
 16
 7 8 9 15 16 20 24 25 31 33 50 56 83 85 96 99
 12
 7 8 9 15 20 24 31 36 83 85 96 99
 14
 0 7 8 9 13 14 24 25 26 33 36 50 67 83
 15
 7 8 9 13 14 18 24 25 33 40 50 56 67 83 99
 14
 0 7 8 9 13 14 20 24 25 33 36 50 67 83
 15
 0 7 9 15 16 20 24 33 36 50 56 67 77 83 99
 13
 7 9 15 20 24 25 33 40 41 67 83 91 99
 16
 7 8 9 15 16 20 24 25 33 36 41 50 67 83 85 99
 13
 7 8 9 14 20 24 25 32 36 54 67 78 83
 17
 7 8 9 14 16 20 24 25 26 32 33 50 56 67 78 83 96
 16
 7 8 9 20 24 25 26 28 33 35 50 56 67 72 83 96
 15
 7 8 9 24 25 26 28 33 50 55 56 67 72 83 86
 15
 7 8 9 20 24 25 28 33 50 56 67 71 72 83 97
 15
 7 8 9 14 20 24 25 33 36 50 55 56 67 69 83
 12
 7 8 9 12 24 25 33 38 56 67 71 97
 14
 7 8 9 12 20 24 25 33 52 56 67 71 83 97
 16
 7 8 9 20 24 25 33 46 50 56 67 71 72 74 83 96
 15
 7 8 9 20 24 25 33 50 56 67 71 72 74 83 97
 15
 7 8 9 24 25 32 33 50 56 67 74 77 83 97 99
 19
 7 8 9 20 24 25 32 33 41 50 56 60 67 77 83 84 85 91 99
 17
 7 8 9 14 20 24 25 33 36 41 44 50 60 67 83 96 99
 15
 7 8 9 14 20 24 25 33 36 50 60 67 79 83 99
 14
 4 7 8 9 18 24 25 26 33 50 51 67 79 83
 16
 7 8 9 19 20 24 25 26 32 33 41 50 51 56 67 83
 15
 4 7 8 9 16 19 20 24 25 26 33 47 50 67 83
 14
 7 8 9 24 25 32 33 45 50 56 67 74 83 94
 15
 7 8 9 20 24 25 33 45 50 56 67 72 74 83 94
 16
 7 8 9 16 20 24 25 33 50 58 67 72 83 94 96 99
 12
 7 8 9 16 18 20 24 50 67 83 93 99
 13
 7 8 9 24 25 32 42 56 58 67 71 83 96
 17
 0 7 8 9 18 20 24 25 32 33 50 56 57 58 67 83 99
 14
 0 7 8 9 18 20 24 25 33 50 61 67 83 99
 13
 0 1 7 9 20 24 25 33 50 61 67 83 99
 10
 0 1 7 9 24 25 50 55 61 83
 15
 0 7 8 9 18 20 24 25 33 50 61 67 83 96 99
 11
 7 8 9 24 25 50 53 55 61 83 96
 12
 7 8 9 16 24 25 50 53 55 61 83 96
 15
 7 8 9 24 25 26 33 44 49 50 51 56 67 83 90
 15
 7 8 9 16 24 25 26 33 44 49 50 51 67 83 90
 15
 0 7 8 9 24 25 26 33 50 56 67 78 83 84 90
 16
 1 7 8 9 16 24 25 26 29 33 50 65 67 78 83 84
 16
 7 8 9 20 24 25 33 44 50 55 56 67 68 78 83 96
 13
 4 7 8 9 16 19 20 24 25 47 55 83 96
 15
 4 7 8 9 24 25 26 29 33 50 56 65 67 83 84
 15
 7 8 9 24 25 29 33 36 50 60 65 67 83 84 85
 16
 7 8 9 24 25 29 33 36 50 60 65 67 83 84 85 96
 16
 7 8 9 16 19 20 24 25 33 47 56 60 67 71 83 96
 15
 4 7 8 9 16 19 20 24 25 33 47 67 71 83 96
 15
 4 7 8 9 16 19 24 25 33 47 50 54 67 83 96
 14
 4 7 8 9 16 19 24 25 33 47 50 54 67 83
 14
 1 8 9 20 25 30 33 47 50 62 64 67 83 84
 7
 1 6 8 30 62 64 83
 10
 6 7 8 18 24 30 56 62 64 83
 10
 1 6 7 8 24 30 50 62 64 83
 14
 6 7 8 9 24 25 30 33 35 56 67 74 83 84
 12
 6 7 8 9 24 25 33 35 56 74 83 85
 13
 6 7 8 9 24 25 33 35 56 67 74 83 85
 13
 4 7 8 9 24 25 33 35 50 54 56 67 83
 14
 4 7 8 9 18 19 20 24 25 33 47 67 71 83
 12
 1 6 8 9 14 19 25 50 67 70 83 85
 13
 5 7 8 9 22 24 25 33 50 56 70 76 83
 17
 7 8 9 20 24 25 30 33 45 50 56 67 69 70 76 83 84
 16
 7 8 9 20 24 25 33 44 45 50 56 67 69 70 76 83
 16
 7 8 9 16 20 24 25 30 31 33 50 56 67 68 83 88
 15
 7 8 9 16 20 24 31 33 50 56 67 68 83 88 99
 12
 5 7 8 9 11 24 25 31 33 83 96 99
 11
 5 7 8 9 11 24 25 31 33 83 99
 13
 7 8 9 11 18 24 25 31 33 36 56 83 99
 11
 5 7 8 9 11 25 31 33 83 96 99
 13
 5 7 8 9 11 22 24 25 30 33 83 84 99
 13
 5 7 8 9 11 22 24 30 33 67 83 84 99
 15
 5 7 8 9 11 20 22 24 25 30 33 50 67 83 84
 14
 5 7 8 9 11 20 22 24 25 30 33 83 84 99
 15
 2 5 7 8 9 24 25 33 48 50 67 72 83 85 99
 14
 2 5 7 8 9 24 25 28 33 50 56 67 72 83
 16
 2 5 7 8 9 24 25 26 28 33 50 56 67 72 83 96
 16
 2 5 7 8 9 20 24 25 33 48 50 56 67 72 83 85
 13
 7 8 9 16 20 24 25 33 44 50 56 80 98
 17
 0 7 8 9 16 18 24 25 26 33 34 50 56 67 78 83 96
 14
 7 8 16 18 20 22 23 24 30 34 50 56 83 96
 17
 7 8 9 16 18 20 21 23 24 33 34 50 56 67 83 84 96
 14
 7 8 9 20 21 23 24 34 36 50 67 83 84 96
 14
 7 8 9 18 20 22 23 24 50 56 58 67 83 84
 15
 7 8 9 24 25 33 35 50 56 58 67 72 83 84 86
 14
 7 8 9 20 24 25 33 46 56 67 71 83 84 87
 14
 7 8 9 20 24 25 33 46 56 67 71 83 87 96
 14
 7 8 9 20 24 25 30 33 46 56 67 71 83 87
 13
 7 8 9 20 24 25 33 46 56 67 71 83 87
 15
 7 8 9 20 24 25 30 33 56 67 71 80 83 84 87
 14
 7 8 9 20 24 25 33 56 67 71 80 83 85 87
 13
 7 8 9 24 25 33 50 55 56 67 80 85 87
 16
 7 8 9 20 24 25 33 50 56 66 67 74 83 84 87 99
 17
 7 8 9 24 25 30 33 44 50 56 66 67 74 83 84 85 94
 15
 7 8 9 20 24 25 33 50 56 66 67 72 74 83 94
 15
 7 8 9 24 25 26 28 33 36 50 56 67 72 83 94
 16
 7 8 9 24 25 26 28 33 36 50 56 67 72 83 94 96
 15
 1 7 8 9 24 25 26 28 33 50 56 67 72 83 94
 16
 1 7 8 9 16 24 25 26 28 33 50 56 67 72 83 94
 16
 7 8 9 14 20 24 25 26 33 44 50 56 67 72 83 94
 16
 7 8 9 14 16 20 24 25 50 55 56 67 83 85 94 96
 9
 8 9 20 36 67 83 93 96 99
 9
 8 9 20 36 50 67 83 93 96
 12
 7 8 9 16 20 24 50 56 67 71 83 93
 13
 7 8 9 16 20 24 50 56 67 83 93 96 99
 12
 7 8 9 18 24 25 50 53 55 61 83 96
 11
 0 7 8 9 18 24 25 33 55 61 83
 10
 1 7 9 24 25 44 55 61 83 85
 15
 7 8 9 16 24 25 41 44 50 55 56 67 68 83 88
 17
 7 8 9 16 20 24 25 33 41 44 50 56 67 68 83 88 99
 17
 7 8 9 14 16 20 24 25 33 44 50 56 67 83 88 89 99
 18
 7 8 9 16 20 24 25 33 41 44 50 56 67 79 83 88 89 99
 15
 7 8 9 15 20 24 25 33 36 44 50 67 79 83 99
 13
 7 8 9 15 20 24 33 50 56 67 83 88 99
 15
 7 8 9 15 16 20 24 25 33 50 56 67 83 88 99
 14
 7 9 15 24 25 33 41 50 56 67 83 85 91 99
 16
 4 7 8 9 18 24 25 33 41 44 51 56 67 71 83 99
 16
 4 7 9 18 20 24 25 33 41 44 50 51 56 67 83 99
 12
 7 8 16 18 20 21 23 24 56 65 83 84
 18
 7 8 9 11 16 20 24 25 32 33 50 56 67 83 84 85 91 99
 18
 7 8 9 11 16 18 20 22 24 25 30 33 50 56 67 83 84 96
 17
 7 8 9 11 20 22 24 25 30 50 56 67 83 84 91 96 99
 11
 7 8 16 18 21 24 56 73 83 91 96
 11
 8 16 18 21 24 50 56 73 83 91 96
 11
 1 7 8 9 22 24 50 73 83 91 96
 16
 7 8 9 20 22 24 25 26 33 43 50 56 63 67 83 91
 15
 7 8 9 24 25 32 33 43 44 50 56 63 67 70 83
 13
 1 7 8 9 24 32 50 67 73 83 84 91 96
 14
 7 8 9 24 25 32 33 43 50 56 67 70 76 83
 15
 7 8 9 24 25 30 32 33 43 50 56 67 70 76 83
 14
 7 8 9 24 25 32 33 43 50 54 56 67 76 83
 16
 7 8 9 20 24 25 32 33 50 54 56 67 69 72 76 83
 16
 7 8 9 20 22 24 25 33 50 54 56 63 67 69 83 85
 15
 7 8 9 20 24 25 33 50 54 56 63 67 69 72 83
 15
 7 8 9 20 24 25 33 50 56 63 67 70 72 81 83
 17
 7 8 9 20 24 25 29 33 44 50 56 63 67 70 81 83 85
 16
 7 8 9 20 24 25 33 50 56 63 67 70 72 81 83 85
 17
 1 7 8 9 16 21 24 29 33 50 56 67 70 81 83 85 96
 18
 7 8 9 21 24 25 26 29 33 35 44 50 56 67 72 83 85 86
 15
 7 8 9 24 25 26 29 33 50 56 65 67 72 83 86
 17
 1 7 8 9 16 24 25 26 29 33 50 56 65 67 78 83 84
 17
 7 8 9 16 18 20 24 25 26 33 44 50 56 65 67 78 83
 16
 7 8 9 16 24 25 26 29 33 50 56 65 67 78 83 84
 16
 1 7 8 9 24 25 26 29 33 50 56 65 67 78 83 84
 15
 7 8 9 24 25 33 35 50 56 65 67 72 83 84 86
 15
 7 8 9 24 25 26 33 35 39 42 50 56 67 83 86
 15
 7 8 9 24 25 26 33 35 39 42 56 67 83 84 86
 16
 7 8 9 24 25 33 35 39 42 50 56 67 72 83 84 86
 14
 7 8 9 20 24 29 30 50 56 58 65 67 83 84
 14
 7 8 9 18 24 25 33 50 58 67 82 83 89 99
 14
 7 8 9 16 20 24 50 56 58 67 82 83 89 99
 11
 7 9 16 18 20 24 56 67 71 83 93
 16
 7 8 9 16 20 24 29 30 50 56 58 65 67 83 84 96
 14
 7 8 9 24 29 30 50 56 58 65 67 83 84 96
 14
 7 8 9 16 24 29 30 50 56 58 65 67 83 84
 13
 7 8 16 24 29 30 39 50 56 73 83 91 96
 16
 6 7 8 9 16 21 24 25 29 33 39 50 51 56 67 83
 16
 6 7 8 9 16 24 25 29 33 40 50 65 67 83 85 96
 15
 7 8 9 16 24 25 29 33 40 50 51 65 67 83 96
 12
 7 8 9 18 20 24 29 40 65 67 83 92
 11
 7 8 9 18 24 29 40 65 67 83 92
 12
 7 8 9 10 12 16 20 24 40 67 83 90
 12
 7 8 9 10 12 20 24 40 67 83 90 96
 14
 7 8 9 12 16 20 24 39 50 58 67 83 90 96
 13
 7 8 9 12 16 20 24 39 50 58 67 83 90
 13
 6 7 8 9 16 24 27 30 39 67 83 90 96
 17
 7 8 9 12 16 20 24 25 33 50 56 58 60 67 83 85 99
 13
 7 8 9 12 18 20 24 58 60 67 71 83 85
 12
 7 8 9 12 18 24 40 58 67 71 83 92
 11
 7 8 9 16 20 24 67 71 83 93 96
 17
 7 8 9 20 24 25 33 39 45 50 56 63 67 70 81 83 84
 16
 7 8 9 20 24 25 33 41 50 56 63 67 70 81 83 85
 17
 7 8 9 24 25 30 33 43 45 50 56 63 67 70 83 84 85
 16
 7 8 9 24 25 33 43 45 50 56 63 67 70 83 84 85
 14
 7 8 9 24 25 33 39 43 45 50 56 63 70 83
 17
 7 8 9 20 24 25 26 33 44 45 50 56 63 67 81 83 85
 17
 7 8 9 20 24 25 33 44 45 50 56 63 67 69 70 83 85
 16
 7 8 9 20 24 25 33 41 50 56 63 67 69 70 83 85
 15
 7 8 9 20 24 25 33 50 56 63 67 70 72 76 83
 11
 9 15 20 25 33 45 67 77 83 91 99
 15
 7 9 15 16 20 24 25 33 36 44 50 67 77 83 85
 16
 7 8 9 15 20 24 25 33 50 56 67 77 83 85 91 99
 14
 7 8 9 15 20 24 33 36 44 50 67 79 83 99
 14
 7 8 9 15 20 24 33 50 56 67 71 79 83 85
 11
 9 15 20 25 33 45 50 67 77 83 91
 11
 9 15 20 29 33 45 50 67 83 84 91
 16
 7 8 9 15 20 24 25 33 36 44 50 67 79 83 96 99
 13
 7 8 9 24 40 42 50 56 60 67 71 77 83
 15
 7 8 9 16 24 25 33 40 42 56 60 67 71 77 83
 16
 7 8 9 16 20 24 25 33 40 42 56 60 67 71 77 83
 14
 7 9 15 20 24 33 40 50 67 77 83 85 91 99
 17
 1 7 8 9 20 24 25 33 41 44 50 60 67 83 85 89 99
 16
 0 2 3 7 8 9 20 24 25 33 41 44 50 56 67 83
 15
 2 7 8 9 20 24 25 33 46 50 56 67 72 83 86
 20
 2 7 8 9 24 25 26 30 33 41 50 56 67 72 83 84 85 86 91 96
 16
 2 7 8 9 20 24 25 33 46 50 56 67 72 83 86 96
 16
 2 7 8 9 20 24 25 26 33 46 50 56 67 72 83 96
 15
 2 7 8 9 20 24 25 26 33 46 50 56 67 72 83
 15
 7 8 9 24 25 26 33 35 50 56 65 67 83 84 86
 15
 7 8 9 24 25 26 30 33 35 45 56 59 67 83 86
 16
 7 8 9 20 24 25 33 35 45 50 52 56 67 72 83 96
 17
 7 8 9 20 24 25 33 35 45 50 52 56 67 72 83 84 96
 16
 7 8 9 20 24 25 26 33 35 50 52 56 67 72 83 96
 17
 7 8 9 20 24 25 26 33 45 50 52 56 67 72 83 86 99
 13
 8 9 20 25 30 33 45 50 52 67 83 87 99
 13
 8 9 20 25 33 45 50 52 67 83 87 96 99
 17
 7 8 9 20 24 25 26 33 50 56 67 68 72 83 85 86 99
 15
 6 7 8 9 24 25 26 30 33 35 45 56 67 83 86
 15
 2 7 8 9 20 24 25 33 50 56 67 72 83 86 87
 17
 0 2 7 8 9 20 24 25 26 33 50 56 67 72 83 85 87
 16
 2 7 8 9 20 24 25 26 33 50 56 67 72 83 87 96
 18
 0 2 7 8 9 20 24 25 26 33 50 56 67 72 83 85 87 96
 15
 2 7 8 9 24 25 26 33 50 52 56 67 72 83 99
 16
 2 7 8 9 24 25 26 33 50 52 56 67 72 83 86 99
 15
 2 7 8 9 24 25 33 50 52 56 67 72 83 86 99
 16
 2 7 8 9 24 25 33 50 52 56 67 72 77 83 85 99
 12
 7 8 9 20 24 25 33 50 52 56 85 98
 15
 7 8 9 20 24 25 33 41 50 52 56 67 83 87 99
 14
 7 9 16 24 25 26 33 40 50 67 68 83 90 96
 14
 7 8 9 24 25 26 33 49 50 56 67 69 76 83
 15
 7 8 9 20 24 25 26 33 49 50 56 67 69 76 83
 16
 7 8 9 20 24 25 33 50 56 67 69 71 72 76 83 99
 15
 7 8 9 20 24 25 33 49 50 56 63 67 76 83 99
 16
 7 8 9 20 24 25 33 49 50 56 63 67 71 76 83 99
 15
 7 8 9 18 24 25 33 43 49 50 56 63 67 70 83
 16
 7 8 9 24 25 30 33 43 49 50 56 63 67 70 83 84
 14
 7 8 9 24 25 33 43 49 50 54 56 63 67 83
 14
 7 8 9 24 33 43 50 54 56 63 67 79 83 84
 14
 7 8 9 24 25 26 33 43 50 66 67 73 83 84
 16
 7 8 9 20 24 25 33 50 54 56 66 67 70 83 84 87
 13
 6 7 8 9 13 18 24 44 50 66 67 83 99
 14
 6 7 8 9 13 18 24 25 33 44 50 66 67 83
 13
 6 7 8 9 13 16 24 33 50 56 79 83 99
 11
 1 6 7 8 9 13 24 50 79 83 99
 14
 6 7 8 9 13 18 24 33 50 56 79 83 84 99
 15
 7 8 9 13 18 20 24 25 33 50 56 67 79 83 89
 16
 7 8 9 18 20 24 33 48 50 56 67 79 83 85 89 99
 16
 6 7 8 9 18 24 25 33 48 50 56 67 72 83 84 85
 17
 0 7 8 9 18 24 25 33 41 48 50 56 66 67 83 85 99
 14
 6 7 8 9 18 24 25 48 50 56 57 67 83 99
 14
 1 6 7 8 9 24 25 50 56 57 67 78 83 99
 17
 1 7 8 9 16 20 24 25 33 48 50 67 71 78 83 85 96
 17
 7 8 9 18 24 25 33 41 44 50 56 67 70 78 83 85 89
 15
 4 7 9 18 24 25 33 41 44 50 51 56 67 70 83
 15
 7 8 9 16 17 20 24 25 33 50 53 67 71 83 89
 15
 7 8 9 16 17 20 24 25 33 50 56 60 67 83 99
 14
 7 8 9 17 20 24 25 33 50 56 60 67 83 99
 14
 7 8 9 17 20 24 25 33 50 56 60 67 71 83
 15
 7 8 9 18 20 24 30 48 50 56 59 62 67 83 85
 11
 7 8 18 20 24 30 37 59 62 83 84
 11
 1 7 8 9 18 22 24 50 56 73 83
 15
 7 8 9 20 24 25 33 37 50 59 67 83 84 88 96
 16
 4 7 8 9 16 19 20 24 25 33 50 67 83 88 96 99
 15
 4 7 8 9 16 19 20 24 25 33 50 67 83 88 99
 13
 4 7 8 9 16 19 20 24 25 50 55 83 88
 15
 7 8 9 16 20 24 25 33 37 50 59 67 83 84 88
 13
 7 9 18 20 24 25 33 37 40 59 66 67 83
 14
 7 8 9 18 20 24 25 33 37 40 59 66 67 83
 13
 7 8 9 18 20 24 32 37 40 56 59 67 83
 12
 7 8 9 16 20 24 32 37 40 59 67 83
 13
 7 8 9 16 20 24 32 37 40 56 59 67 83
 12
 7 8 9 18 20 24 32 37 40 59 67 83
 15
 7 8 9 24 25 26 33 42 50 51 56 57 67 83 96
 14
 7 8 9 24 25 26 33 42 50 51 56 57 67 83
 12
 7 8 9 20 24 32 37 42 56 67 83 96
 17
 7 8 9 20 24 25 33 42 44 50 56 67 71 75 82 83 96
 16
 1 7 8 9 20 24 25 33 50 62 64 67 75 83 84 96
 15
 7 8 9 20 24 25 33 36 50 62 64 67 75 83 84
 12
 1 7 8 20 24 30 50 59 62 64 83 84
 16
 1 8 9 20 24 25 30 33 50 57 62 64 67 83 84 96
 16
 7 8 9 24 25 26 33 36 39 41 50 57 64 67 83 85
 14
 9 20 25 30 33 36 50 57 62 64 67 83 84 96
 14
 1 6 7 8 9 24 34 39 50 56 62 67 83 84
 17
 7 8 9 16 20 22 24 25 33 34 41 50 56 62 67 83 96
 14
 1 7 8 9 16 20 22 23 24 30 34 50 83 96
 16
 7 8 9 20 21 22 23 24 30 31 50 56 83 84 91 96
 15
 7 8 9 16 18 20 22 23 24 48 50 56 67 83 96
 17
 0 5 7 8 9 20 24 25 31 33 41 48 50 67 83 84 85
 15
 5 7 8 9 20 24 25 30 34 48 50 67 83 84 85
 16
 7 8 9 20 24 29 30 34 48 50 56 67 83 84 91 96
 17
 0 7 8 9 20 24 25 33 34 48 50 56 67 83 84 91 96
 15
 1 7 8 9 20 24 29 30 34 50 56 65 67 83 84
 15
 3 7 9 16 20 24 25 30 38 50 53 55 83 84 96
 16
 3 7 8 9 20 24 25 30 33 38 50 53 67 70 83 84
 14
 3 7 8 9 20 24 25 33 38 50 53 54 67 96
 15
 7 8 9 18 19 20 24 25 33 50 51 54 67 75 83
 16
 7 8 9 18 20 24 25 33 50 51 54 56 57 67 75 83
 17
 0 7 8 9 18 20 24 25 33 41 50 51 54 56 67 75 83
 17
 7 8 9 16 20 24 25 33 50 51 67 70 75 83 84 89 96
 17
 7 8 9 20 24 25 33 41 50 54 56 70 75 83 85 86 91
 17
 7 8 9 16 24 25 26 33 50 56 67 70 72 74 83 84 89
 17
 7 8 9 24 25 26 30 33 50 56 67 72 74 83 84 86 89
 16
 7 8 9 24 25 26 30 33 50 56 67 70 72 74 83 89
 16
 7 8 9 16 24 25 31 33 39 50 56 67 74 83 85 94
 18
 6 7 8 9 18 24 25 26 33 39 44 50 56 67 72 83 85 94
 18
 6 7 8 9 16 24 25 26 33 39 44 50 56 67 72 83 85 94
 14
 6 7 8 9 16 24 25 33 56 67 74 83 85 94
 16
 7 8 9 24 25 26 33 41 44 50 53 56 67 74 83 94
 19
 0 7 8 9 14 18 24 25 26 33 41 44 50 56 67 70 72 83 85
 14
 0 5 7 8 9 18 24 25 30 33 67 73 83 85
 18
 0 7 8 9 24 25 26 30 33 36 44 50 56 67 72 83 85 94
 15
 7 8 9 20 24 25 33 44 50 56 67 72 80 83 94
 16
 7 8 9 16 20 24 25 26 33 50 56 67 72 80 83 94
 13
 7 8 9 16 24 25 33 44 50 56 80 83 98
 13
 7 8 9 20 24 25 33 50 56 80 84 85 98
 16
 7 8 9 14 24 25 26 30 33 49 50 56 60 67 83 84
 17
 0 7 8 9 14 24 25 33 36 49 50 56 67 70 82 83 85
 15
 7 8 9 14 24 25 33 36 44 50 67 70 75 82 83
 14
 7 8 9 14 20 24 25 36 44 55 67 75 82 83
 18
 0 7 8 9 20 24 25 33 50 56 60 67 71 75 77 83 85 96
 16
 7 8 9 14 24 25 26 33 49 50 55 56 67 71 72 83
 16
 7 8 9 24 25 33 41 50 56 60 67 75 77 83 91 99
 16
 7 9 16 20 24 25 33 36 41 50 60 67 75 77 83 99
 17
 7 8 9 16 20 24 25 33 36 41 50 60 67 75 77 83 99
 12
 7 8 9 12 16 20 24 30 61 67 71 83
 16
 7 8 9 12 24 25 26 33 49 50 54 56 67 72 74 83
 14
 7 8 9 24 25 33 35 48 50 56 67 72 83 86
 16
 7 8 9 24 25 33 35 42 44 50 56 67 72 83 84 86
 17
 7 8 9 14 24 25 26 30 33 35 44 50 56 67 72 83 86
 16
 7 8 9 12 14 16 24 25 26 33 40 42 44 50 67 83
 12
 7 9 10 12 16 20 24 40 67 83 90 96
 16
 0 7 8 9 16 24 25 26 33 42 44 50 56 67 78 83
 13
 7 8 9 12 16 24 40 42 44 67 71 83 92
 17
 7 8 9 20 24 25 33 40 42 44 50 56 67 71 78 83 96
 16
 7 8 9 12 24 25 26 30 33 39 50 56 67 78 83 92
 14
 3 7 8 9 12 14 20 24 25 33 50 56 67 78
 12
 7 8 9 12 18 20 24 30 61 67 71 83
 13
 0 7 9 18 20 24 25 33 61 67 71 83 96
 10
 7 8 16 18 21 24 56 73 83 91
 16
 6 7 8 9 18 24 25 26 33 39 50 56 67 81 83 84
 16
 7 8 9 20 24 25 33 50 55 56 63 67 72 81 83 85
 14
 7 8 9 20 24 25 31 33 50 54 56 63 81 83
 15
 7 8 9 20 24 25 31 33 50 54 56 63 81 83 84
 18
 0 7 8 9 20 24 25 26 33 50 54 56 63 67 72 83 85 86
 15
 7 8 9 20 24 25 26 33 50 56 63 67 72 83 86
 15
 7 8 9 20 24 25 31 33 50 56 63 67 81 83 99
 15
 0 5 7 8 9 11 24 25 33 50 67 83 85 96 99
 14
 7 8 9 11 16 24 25 41 50 55 56 67 85 96
 12
 5 9 11 16 25 33 41 50 67 83 85 99
 15
 5 7 8 9 11 20 24 25 30 33 41 50 67 83 85
 13
 5 7 8 9 11 20 24 25 31 33 50 67 83
 12
 5 7 8 9 11 24 25 31 33 50 67 83
 12
 5 8 9 25 33 48 50 67 78 83 85 99
 18
 7 8 9 24 25 26 30 33 48 50 56 67 78 83 84 85 91 96
 14
 7 8 9 11 20 24 25 31 33 56 83 91 96 99
 16
 7 8 9 11 12 20 24 25 30 33 44 67 83 85 91 99
 12
 5 7 8 9 11 25 31 33 50 67 83 96
 13
 7 8 9 11 24 25 31 33 50 83 91 96 99
 15
 7 8 9 12 16 24 25 31 33 50 56 67 82 83 90
 17
 7 8 9 12 24 25 26 30 33 49 50 56 67 82 83 84 90
 17
 0 7 8 9 20 24 25 31 33 49 50 56 67 83 84 85 90
 13
 7 8 9 20 24 25 30 33 50 56 80 84 98
 14
 7 8 9 16 20 24 25 30 33 50 56 80 84 98
 15
 7 8 9 20 24 25 33 50 56 67 71 72 80 83 97
 15
 7 8 9 24 25 33 44 50 56 67 72 80 83 97 99
 17
 2 7 8 9 16 24 25 26 33 50 56 67 72 80 83 86 99
 17
 2 7 8 9 16 20 24 25 26 33 50 56 67 71 80 83 86
 13
 2 7 8 9 24 25 33 50 56 67 83 89 97
 15
 7 8 9 24 25 26 33 50 56 67 72 83 86 89 97
 14
 7 8 9 24 25 26 33 50 56 67 83 86 89 97
 15
 7 8 9 24 25 26 33 44 50 56 67 70 81 83 89
 14
 7 8 9 16 20 24 25 28 33 50 54 56 67 80
 17
 7 8 9 16 24 25 30 33 44 50 54 56 67 70 71 80 83
 17
 1 7 8 9 16 24 25 28 33 50 54 56 67 70 72 83 96
 17
 1 7 8 9 16 20 24 25 28 33 50 54 56 67 70 72 83
 14
 5 8 9 25 28 33 50 54 56 67 70 72 83 96
 15
 5 7 8 9 24 25 28 33 50 54 56 67 70 72 83
 16
 5 7 8 9 24 25 28 33 50 54 56 67 70 72 83 96
 16
 7 8 9 20 24 25 33 43 50 55 56 66 67 81 83 85
 16
 0 7 8 9 20 24 25 33 43 50 55 56 67 81 83 85
 15
 7 8 9 24 25 33 43 44 50 55 56 66 67 81 83
 15
 7 8 9 20 24 25 33 43 44 50 55 56 66 81 83
 11
 0 5 7 8 9 24 31 54 56 81 83
